; benchmark generated from python API
(set-info :status unknown)
(declare-fun x_months () Int)
(declare-fun x_beta () Int)
(declare-fun y_months () Int)
(declare-fun y_beta () Int)
(declare-fun z_months () Int)
(declare-fun z_beta () Int)
(assert
 (<= (- 1202) x_months))
(assert
 (>= 1209 x_months))
(assert
 (let ((?x4028 (mod x_months 48)))
 (let ((?x13 ((as const (Array Int Int)) 0)))
 (let ((?x15 (store ?x13 0 31)))
 (let ((?x18 (store ?x15 1 30)))
 (let ((?x20 (store ?x18 2 31)))
 (let ((?x22 (store ?x20 3 30)))
 (let ((?x24 (store ?x22 4 31)))
 (let ((?x26 (store ?x24 5 31)))
 (let ((?x28 (store ?x26 6 30)))
 (let ((?x30 (store ?x28 7 31)))
 (let ((?x32 (store ?x30 8 30)))
 (let ((?x34 (store ?x32 9 31)))
 (let ((?x36 (store ?x34 10 31)))
 (let ((?x39 (store ?x36 11 28)))
 (let ((?x41 (store ?x39 12 31)))
 (let ((?x43 (store ?x41 13 30)))
 (let ((?x45 (store ?x43 14 31)))
 (let ((?x47 (store ?x45 15 30)))
 (let ((?x49 (store ?x47 16 31)))
 (let ((?x51 (store ?x49 17 31)))
 (let ((?x53 (store ?x51 18 30)))
 (let ((?x55 (store ?x53 19 31)))
 (let ((?x57 (store ?x55 20 30)))
 (let ((?x59 (store ?x57 21 31)))
 (let ((?x61 (store ?x59 22 31)))
 (let ((?x63 (store ?x61 23 28)))
 (let ((?x65 (store ?x63 24 31)))
 (let ((?x67 (store ?x65 25 30)))
 (let ((?x69 (store ?x67 26 31)))
 (let ((?x71 (store ?x69 27 30)))
 (let ((?x72 (store ?x71 28 31)))
 (let ((?x74 (store ?x72 29 31)))
 (let ((?x75 (store ?x74 30 30)))
 (let ((?x76 (store ?x75 31 31)))
 (let ((?x78 (store ?x76 32 30)))
 (let ((?x80 (store ?x78 33 31)))
 (let ((?x82 (store ?x80 34 31)))
 (let ((?x84 (store ?x82 35 28)))
 (let ((?x86 (store ?x84 36 31)))
 (let ((?x88 (store ?x86 37 30)))
 (let ((?x90 (store ?x88 38 31)))
 (let ((?x92 (store ?x90 39 30)))
 (let ((?x94 (store ?x92 40 31)))
 (let ((?x96 (store ?x94 41 31)))
 (let ((?x98 (store ?x96 42 30)))
 (let ((?x100 (store ?x98 43 31)))
 (let ((?x102 (store ?x100 44 30)))
 (let ((?x104 (store ?x102 45 31)))
 (let ((?x106 (store ?x104 46 31)))
 (let ((?x108 (store ?x106 47 29)))
 (let ((?x3156 (select ?x108 ?x4028)))
 (let ((?x4002 (ite (or (= 22802 (+ x_months 24003)) (= 25202 (+ x_months 24003))) 28 ?x3156)))
 (let (($x1593 (<= 0 x_beta)))
 (and $x1593 (< x_beta ?x4002))))))))))))))))))))))))))))))))))))))))))))))))))))))))
(assert
 (and (= x_months (- (+ (* 2023 12) 1) 24003)) (= 30 x_beta)))
(assert
 (<= (- 1202) y_months))
(assert
 (>= 1209 y_months))
(assert
 (let ((?x3344 (mod y_months 48)))
 (let ((?x13 ((as const (Array Int Int)) 0)))
 (let ((?x15 (store ?x13 0 31)))
 (let ((?x18 (store ?x15 1 30)))
 (let ((?x20 (store ?x18 2 31)))
 (let ((?x22 (store ?x20 3 30)))
 (let ((?x24 (store ?x22 4 31)))
 (let ((?x26 (store ?x24 5 31)))
 (let ((?x28 (store ?x26 6 30)))
 (let ((?x30 (store ?x28 7 31)))
 (let ((?x32 (store ?x30 8 30)))
 (let ((?x34 (store ?x32 9 31)))
 (let ((?x36 (store ?x34 10 31)))
 (let ((?x39 (store ?x36 11 28)))
 (let ((?x41 (store ?x39 12 31)))
 (let ((?x43 (store ?x41 13 30)))
 (let ((?x45 (store ?x43 14 31)))
 (let ((?x47 (store ?x45 15 30)))
 (let ((?x49 (store ?x47 16 31)))
 (let ((?x51 (store ?x49 17 31)))
 (let ((?x53 (store ?x51 18 30)))
 (let ((?x55 (store ?x53 19 31)))
 (let ((?x57 (store ?x55 20 30)))
 (let ((?x59 (store ?x57 21 31)))
 (let ((?x61 (store ?x59 22 31)))
 (let ((?x63 (store ?x61 23 28)))
 (let ((?x65 (store ?x63 24 31)))
 (let ((?x67 (store ?x65 25 30)))
 (let ((?x69 (store ?x67 26 31)))
 (let ((?x71 (store ?x69 27 30)))
 (let ((?x72 (store ?x71 28 31)))
 (let ((?x74 (store ?x72 29 31)))
 (let ((?x75 (store ?x74 30 30)))
 (let ((?x76 (store ?x75 31 31)))
 (let ((?x78 (store ?x76 32 30)))
 (let ((?x80 (store ?x78 33 31)))
 (let ((?x82 (store ?x80 34 31)))
 (let ((?x84 (store ?x82 35 28)))
 (let ((?x86 (store ?x84 36 31)))
 (let ((?x88 (store ?x86 37 30)))
 (let ((?x90 (store ?x88 38 31)))
 (let ((?x92 (store ?x90 39 30)))
 (let ((?x94 (store ?x92 40 31)))
 (let ((?x96 (store ?x94 41 31)))
 (let ((?x98 (store ?x96 42 30)))
 (let ((?x100 (store ?x98 43 31)))
 (let ((?x102 (store ?x100 44 30)))
 (let ((?x104 (store ?x102 45 31)))
 (let ((?x106 (store ?x104 46 31)))
 (let ((?x108 (store ?x106 47 29)))
 (let ((?x3482 (select ?x108 ?x3344)))
 (let ((?x1260 (ite (or (= 22802 (+ y_months 24003)) (= 25202 (+ y_months 24003))) 28 ?x3482)))
 (and (<= 0 y_beta) (< y_beta ?x1260)))))))))))))))))))))))))))))))))))))))))))))))))))))))
(assert
 (<= (- 1202) z_months))
(assert
 (>= 1209 z_months))
(assert
 (let ((?x3397 (mod z_months 48)))
 (let ((?x13 ((as const (Array Int Int)) 0)))
 (let ((?x15 (store ?x13 0 31)))
 (let ((?x18 (store ?x15 1 30)))
 (let ((?x20 (store ?x18 2 31)))
 (let ((?x22 (store ?x20 3 30)))
 (let ((?x24 (store ?x22 4 31)))
 (let ((?x26 (store ?x24 5 31)))
 (let ((?x28 (store ?x26 6 30)))
 (let ((?x30 (store ?x28 7 31)))
 (let ((?x32 (store ?x30 8 30)))
 (let ((?x34 (store ?x32 9 31)))
 (let ((?x36 (store ?x34 10 31)))
 (let ((?x39 (store ?x36 11 28)))
 (let ((?x41 (store ?x39 12 31)))
 (let ((?x43 (store ?x41 13 30)))
 (let ((?x45 (store ?x43 14 31)))
 (let ((?x47 (store ?x45 15 30)))
 (let ((?x49 (store ?x47 16 31)))
 (let ((?x51 (store ?x49 17 31)))
 (let ((?x53 (store ?x51 18 30)))
 (let ((?x55 (store ?x53 19 31)))
 (let ((?x57 (store ?x55 20 30)))
 (let ((?x59 (store ?x57 21 31)))
 (let ((?x61 (store ?x59 22 31)))
 (let ((?x63 (store ?x61 23 28)))
 (let ((?x65 (store ?x63 24 31)))
 (let ((?x67 (store ?x65 25 30)))
 (let ((?x69 (store ?x67 26 31)))
 (let ((?x71 (store ?x69 27 30)))
 (let ((?x72 (store ?x71 28 31)))
 (let ((?x74 (store ?x72 29 31)))
 (let ((?x75 (store ?x74 30 30)))
 (let ((?x76 (store ?x75 31 31)))
 (let ((?x78 (store ?x76 32 30)))
 (let ((?x80 (store ?x78 33 31)))
 (let ((?x82 (store ?x80 34 31)))
 (let ((?x84 (store ?x82 35 28)))
 (let ((?x86 (store ?x84 36 31)))
 (let ((?x88 (store ?x86 37 30)))
 (let ((?x90 (store ?x88 38 31)))
 (let ((?x92 (store ?x90 39 30)))
 (let ((?x94 (store ?x92 40 31)))
 (let ((?x96 (store ?x94 41 31)))
 (let ((?x98 (store ?x96 42 30)))
 (let ((?x100 (store ?x98 43 31)))
 (let ((?x102 (store ?x100 44 30)))
 (let ((?x104 (store ?x102 45 31)))
 (let ((?x106 (store ?x104 46 31)))
 (let ((?x108 (store ?x106 47 29)))
 (let ((?x4768 (select ?x108 ?x3397)))
 (let ((?x1913 (ite (or (= 22802 (+ z_months 24003)) (= 25202 (+ z_months 24003))) 28 ?x4768)))
 (and (<= 0 z_beta) (< z_beta ?x1913)))))))))))))))))))))))))))))))))))))))))))))))))))))))
(assert
 (let ((?x3946 (+ x_months 1)))
 (let ((?x2415 (mod ?x3946 48)))
 (let ((?x312 (ite (> 22803 (+ ?x3946 24003)) 1 (ite (<= 25203 (+ ?x3946 24003)) (- 1) 0))))
 (let ((?x13 ((as const (Array Int Int)) 0)))
 (let ((?x15 (store ?x13 0 31)))
 (let ((?x18 (store ?x15 1 30)))
 (let ((?x20 (store ?x18 2 31)))
 (let ((?x22 (store ?x20 3 30)))
 (let ((?x24 (store ?x22 4 31)))
 (let ((?x26 (store ?x24 5 31)))
 (let ((?x28 (store ?x26 6 30)))
 (let ((?x30 (store ?x28 7 31)))
 (let ((?x32 (store ?x30 8 30)))
 (let ((?x34 (store ?x32 9 31)))
 (let ((?x36 (store ?x34 10 31)))
 (let ((?x39 (store ?x36 11 28)))
 (let ((?x41 (store ?x39 12 31)))
 (let ((?x43 (store ?x41 13 30)))
 (let ((?x45 (store ?x43 14 31)))
 (let ((?x47 (store ?x45 15 30)))
 (let ((?x49 (store ?x47 16 31)))
 (let ((?x51 (store ?x49 17 31)))
 (let ((?x53 (store ?x51 18 30)))
 (let ((?x55 (store ?x53 19 31)))
 (let ((?x57 (store ?x55 20 30)))
 (let ((?x59 (store ?x57 21 31)))
 (let ((?x61 (store ?x59 22 31)))
 (let ((?x63 (store ?x61 23 28)))
 (let ((?x65 (store ?x63 24 31)))
 (let ((?x67 (store ?x65 25 30)))
 (let ((?x69 (store ?x67 26 31)))
 (let ((?x71 (store ?x69 27 30)))
 (let ((?x72 (store ?x71 28 31)))
 (let ((?x74 (store ?x72 29 31)))
 (let ((?x75 (store ?x74 30 30)))
 (let ((?x76 (store ?x75 31 31)))
 (let ((?x78 (store ?x76 32 30)))
 (let ((?x80 (store ?x78 33 31)))
 (let ((?x82 (store ?x80 34 31)))
 (let ((?x84 (store ?x82 35 28)))
 (let ((?x86 (store ?x84 36 31)))
 (let ((?x88 (store ?x86 37 30)))
 (let ((?x90 (store ?x88 38 31)))
 (let ((?x92 (store ?x90 39 30)))
 (let ((?x94 (store ?x92 40 31)))
 (let ((?x96 (store ?x94 41 31)))
 (let ((?x98 (store ?x96 42 30)))
 (let ((?x100 (store ?x98 43 31)))
 (let ((?x102 (store ?x100 44 30)))
 (let ((?x104 (store ?x102 45 31)))
 (let ((?x106 (store ?x104 46 31)))
 (let ((?x108 (store ?x106 47 29)))
 (let ((?x2073 (ite (or (= 22802 (+ ?x3946 24003)) (= 25202 (+ ?x3946 24003))) 28 (select ?x108 ?x2415))))
 (let ((?x2108 (- ?x2073 1)))
 (let (($x3571 (> 0 x_beta)))
 (let ((?x114 (store (store (store (store ?x13 0 0) 1 31) 2 61) 3 92)))
 (let ((?x122 (store (store (store (store ?x114 4 122) 5 153) 6 184) 7 214)))
 (let ((?x130 (store (store (store (store ?x122 8 245) 9 275) 10 306) 11 337)))
 (let ((?x138 (store (store (store (store ?x130 12 365) 13 396) 14 426) 15 457)))
 (let ((?x146 (store (store (store (store ?x138 16 487) 17 518) 18 549) 19 579)))
 (let ((?x154 (store (store (store (store ?x146 20 610) 21 640) 22 671) 23 702)))
 (let ((?x162 (store (store (store (store ?x154 24 730) 25 761) 26 791) 27 822)))
 (let ((?x170 (store (store (store (store ?x162 28 852) 29 883) 30 914) 31 944)))
 (let ((?x178 (store (store (store (store ?x170 32 975) 33 1005) 34 1036) 35 1067)))
 (let ((?x186 (store (store (store (store ?x178 36 1095) 37 1126) 38 1156) 39 1187)))
 (let ((?x194 (store (store (store (store ?x186 40 1217) 41 1248) 42 1279) 43 1309)))
 (let ((?x202 (store (store (store (store ?x194 44 1340) 45 1370) 46 1401) 47 1432)))
 (let ((?x4688 (+ (select ?x202 ?x2415) (ite $x3571 0 (ite (> x_beta ?x2108) ?x2108 x_beta)))))
 (let ((?x2367 (+ (+ ?x4688 ?x312) 0)))
 (let ((?x3182 (+ ?x3946 (* (div ?x2367 1461) 48))))
 (let ((?x3734 (+ (+ ?x3182 (- 1 ?x2415)) 24003)))
 (let ((?x4797 (select ?x202 1)))
 (let ((?x3789 (mod ?x2367 1461)))
 (let (($x2390 (>= ?x3789 (+ ?x4797 (ite (> 22803 ?x3734) 1 (ite (<= 25203 ?x3734) (- 1) 0))))))
 (let ((?x3988 (ite (> 22803 (+ (+ ?x3182 (- 2 ?x2415)) 24003)) 1 (ite (<= 25203 (+ (+ ?x3182 (- 2 ?x2415)) 24003)) (- 1) 0))))
 (let ((?x3260 (select ?x202 2)))
 (let ((?x1968 (ite (> 22803 (+ (+ ?x3182 (- 3 ?x2415)) 24003)) 1 (ite (<= 25203 (+ (+ ?x3182 (- 3 ?x2415)) 24003)) (- 1) 0))))
 (let ((?x3576 (select ?x202 3)))
 (let ((?x1707 (ite (>= ?x3789 (+ ?x3576 ?x1968)) 3 (ite (>= ?x3789 (+ ?x3260 ?x3988)) 2 (ite $x2390 1 0)))))
 (let ((?x2504 (ite (> 22803 (+ (+ ?x3182 (- 4 ?x2415)) 24003)) 1 (ite (<= 25203 (+ (+ ?x3182 (- 4 ?x2415)) 24003)) (- 1) 0))))
 (let ((?x3179 (select ?x202 4)))
 (let ((?x4774 (ite (> 22803 (+ (+ ?x3182 (- 5 ?x2415)) 24003)) 1 (ite (<= 25203 (+ (+ ?x3182 (- 5 ?x2415)) 24003)) (- 1) 0))))
 (let ((?x2770 (select ?x202 5)))
 (let ((?x4047 (ite (>= ?x3789 (+ ?x2770 ?x4774)) 5 (ite (>= ?x3789 (+ ?x3179 ?x2504)) 4 ?x1707))))
 (let ((?x2398 (ite (> 22803 (+ (+ ?x3182 (- 6 ?x2415)) 24003)) 1 (ite (<= 25203 (+ (+ ?x3182 (- 6 ?x2415)) 24003)) (- 1) 0))))
 (let ((?x2012 (select ?x202 6)))
 (let ((?x4767 (ite (> 22803 (+ (+ ?x3182 (- 7 ?x2415)) 24003)) 1 (ite (<= 25203 (+ (+ ?x3182 (- 7 ?x2415)) 24003)) (- 1) 0))))
 (let ((?x1753 (select ?x202 7)))
 (let ((?x3546 (ite (>= ?x3789 (+ ?x1753 ?x4767)) 7 (ite (>= ?x3789 (+ ?x2012 ?x2398)) 6 ?x4047))))
 (let ((?x3496 (ite (> 22803 (+ (+ ?x3182 (- 8 ?x2415)) 24003)) 1 (ite (<= 25203 (+ (+ ?x3182 (- 8 ?x2415)) 24003)) (- 1) 0))))
 (let ((?x3019 (select ?x202 8)))
 (let ((?x2544 (ite (> 22803 (+ (+ ?x3182 (- 9 ?x2415)) 24003)) 1 (ite (<= 25203 (+ (+ ?x3182 (- 9 ?x2415)) 24003)) (- 1) 0))))
 (let ((?x276 (select ?x202 9)))
 (let ((?x1928 (ite (>= ?x3789 (+ ?x276 ?x2544)) 9 (ite (>= ?x3789 (+ ?x3019 ?x3496)) 8 ?x3546))))
 (let ((?x1197 (ite (> 22803 (+ (+ ?x3182 (- 10 ?x2415)) 24003)) 1 (ite (<= 25203 (+ (+ ?x3182 (- 10 ?x2415)) 24003)) (- 1) 0))))
 (let ((?x1211 (select ?x202 10)))
 (let ((?x1614 (ite (> 22803 (+ (+ ?x3182 (- 11 ?x2415)) 24003)) 1 (ite (<= 25203 (+ (+ ?x3182 (- 11 ?x2415)) 24003)) (- 1) 0))))
 (let ((?x2002 (select ?x202 11)))
 (let ((?x4371 (ite (>= ?x3789 (+ ?x2002 ?x1614)) 11 (ite (>= ?x3789 (+ ?x1211 ?x1197)) 10 ?x1928))))
 (let ((?x4635 (ite (> 22803 (+ (+ ?x3182 (- 12 ?x2415)) 24003)) 1 (ite (<= 25203 (+ (+ ?x3182 (- 12 ?x2415)) 24003)) (- 1) 0))))
 (let ((?x4124 (select ?x202 12)))
 (let ((?x1919 (ite (> 22803 (+ (+ ?x3182 (- 13 ?x2415)) 24003)) 1 (ite (<= 25203 (+ (+ ?x3182 (- 13 ?x2415)) 24003)) (- 1) 0))))
 (let ((?x1962 (select ?x202 13)))
 (let ((?x2458 (ite (>= ?x3789 (+ ?x1962 ?x1919)) 13 (ite (>= ?x3789 (+ ?x4124 ?x4635)) 12 ?x4371))))
 (let ((?x3591 (ite (> 22803 (+ (+ ?x3182 (- 14 ?x2415)) 24003)) 1 (ite (<= 25203 (+ (+ ?x3182 (- 14 ?x2415)) 24003)) (- 1) 0))))
 (let ((?x1128 (select ?x202 14)))
 (let ((?x2878 (ite (> 22803 (+ (+ ?x3182 (- 15 ?x2415)) 24003)) 1 (ite (<= 25203 (+ (+ ?x3182 (- 15 ?x2415)) 24003)) (- 1) 0))))
 (let ((?x327 (select ?x202 15)))
 (let ((?x1892 (ite (>= ?x3789 (+ ?x327 ?x2878)) 15 (ite (>= ?x3789 (+ ?x1128 ?x3591)) 14 ?x2458))))
 (let ((?x3550 (ite (> 22803 (+ (+ ?x3182 (- 16 ?x2415)) 24003)) 1 (ite (<= 25203 (+ (+ ?x3182 (- 16 ?x2415)) 24003)) (- 1) 0))))
 (let ((?x2819 (select ?x202 16)))
 (let ((?x4490 (ite (> 22803 (+ (+ ?x3182 (- 17 ?x2415)) 24003)) 1 (ite (<= 25203 (+ (+ ?x3182 (- 17 ?x2415)) 24003)) (- 1) 0))))
 (let ((?x2982 (select ?x202 17)))
 (let ((?x3685 (ite (>= ?x3789 (+ ?x2982 ?x4490)) 17 (ite (>= ?x3789 (+ ?x2819 ?x3550)) 16 ?x1892))))
 (let ((?x4016 (ite (> 22803 (+ (+ ?x3182 (- 18 ?x2415)) 24003)) 1 (ite (<= 25203 (+ (+ ?x3182 (- 18 ?x2415)) 24003)) (- 1) 0))))
 (let ((?x3585 (select ?x202 18)))
 (let ((?x2805 (ite (> 22803 (+ (+ ?x3182 (- 19 ?x2415)) 24003)) 1 (ite (<= 25203 (+ (+ ?x3182 (- 19 ?x2415)) 24003)) (- 1) 0))))
 (let ((?x4836 (select ?x202 19)))
 (let ((?x3808 (ite (>= ?x3789 (+ ?x4836 ?x2805)) 19 (ite (>= ?x3789 (+ ?x3585 ?x4016)) 18 ?x3685))))
 (let ((?x4828 (ite (> 22803 (+ (+ ?x3182 (- 20 ?x2415)) 24003)) 1 (ite (<= 25203 (+ (+ ?x3182 (- 20 ?x2415)) 24003)) (- 1) 0))))
 (let ((?x4726 (select ?x202 20)))
 (let ((?x4508 (ite (> 22803 (+ (+ ?x3182 (- 21 ?x2415)) 24003)) 1 (ite (<= 25203 (+ (+ ?x3182 (- 21 ?x2415)) 24003)) (- 1) 0))))
 (let ((?x4610 (select ?x202 21)))
 (let ((?x4897 (ite (>= ?x3789 (+ ?x4610 ?x4508)) 21 (ite (>= ?x3789 (+ ?x4726 ?x4828)) 20 ?x3808))))
 (let ((?x2734 (ite (> 22803 (+ (+ ?x3182 (- 22 ?x2415)) 24003)) 1 (ite (<= 25203 (+ (+ ?x3182 (- 22 ?x2415)) 24003)) (- 1) 0))))
 (let ((?x2580 (select ?x202 22)))
 (let ((?x3572 (ite (> 22803 (+ (+ ?x3182 (- 23 ?x2415)) 24003)) 1 (ite (<= 25203 (+ (+ ?x3182 (- 23 ?x2415)) 24003)) (- 1) 0))))
 (let ((?x3115 (select ?x202 23)))
 (let ((?x3861 (ite (>= ?x3789 (+ ?x3115 ?x3572)) 23 (ite (>= ?x3789 (+ ?x2580 ?x2734)) 22 ?x4897))))
 (let ((?x3629 (ite (> 22803 (+ (+ ?x3182 (- 24 ?x2415)) 24003)) 1 (ite (<= 25203 (+ (+ ?x3182 (- 24 ?x2415)) 24003)) (- 1) 0))))
 (let ((?x419 (select ?x202 24)))
 (let ((?x1935 (ite (> 22803 (+ (+ ?x3182 (- 25 ?x2415)) 24003)) 1 (ite (<= 25203 (+ (+ ?x3182 (- 25 ?x2415)) 24003)) (- 1) 0))))
 (let ((?x4211 (select ?x202 25)))
 (let ((?x490 (ite (>= ?x3789 (+ ?x4211 ?x1935)) 25 (ite (>= ?x3789 (+ ?x419 ?x3629)) 24 ?x3861))))
 (let ((?x4057 (ite (> 22803 (+ (+ ?x3182 (- 26 ?x2415)) 24003)) 1 (ite (<= 25203 (+ (+ ?x3182 (- 26 ?x2415)) 24003)) (- 1) 0))))
 (let ((?x4589 (select ?x202 26)))
 (let ((?x1393 (ite (> 22803 (+ (+ ?x3182 (- 27 ?x2415)) 24003)) 1 (ite (<= 25203 (+ (+ ?x3182 (- 27 ?x2415)) 24003)) (- 1) 0))))
 (let ((?x3121 (select ?x202 27)))
 (let ((?x2303 (ite (>= ?x3789 (+ ?x3121 ?x1393)) 27 (ite (>= ?x3789 (+ ?x4589 ?x4057)) 26 ?x490))))
 (let ((?x537 (ite (> 22803 (+ (+ ?x3182 (- 28 ?x2415)) 24003)) 1 (ite (<= 25203 (+ (+ ?x3182 (- 28 ?x2415)) 24003)) (- 1) 0))))
 (let ((?x3367 (select ?x202 28)))
 (let ((?x473 (ite (> 22803 (+ (+ ?x3182 (- 29 ?x2415)) 24003)) 1 (ite (<= 25203 (+ (+ ?x3182 (- 29 ?x2415)) 24003)) (- 1) 0))))
 (let ((?x3356 (select ?x202 29)))
 (let ((?x4112 (ite (>= ?x3789 (+ ?x3356 ?x473)) 29 (ite (>= ?x3789 (+ ?x3367 ?x537)) 28 ?x2303))))
 (let ((?x2886 (ite (> 22803 (+ (+ ?x3182 (- 30 ?x2415)) 24003)) 1 (ite (<= 25203 (+ (+ ?x3182 (- 30 ?x2415)) 24003)) (- 1) 0))))
 (let ((?x383 (select ?x202 30)))
 (let ((?x1863 (ite (> 22803 (+ (+ ?x3182 (- 31 ?x2415)) 24003)) 1 (ite (<= 25203 (+ (+ ?x3182 (- 31 ?x2415)) 24003)) (- 1) 0))))
 (let ((?x2378 (select ?x202 31)))
 (let ((?x583 (ite (>= ?x3789 (+ ?x2378 ?x1863)) 31 (ite (>= ?x3789 (+ ?x383 ?x2886)) 30 ?x4112))))
 (let ((?x2895 (ite (> 22803 (+ (+ ?x3182 (- 32 ?x2415)) 24003)) 1 (ite (<= 25203 (+ (+ ?x3182 (- 32 ?x2415)) 24003)) (- 1) 0))))
 (let ((?x1455 (select ?x202 32)))
 (let ((?x4798 (ite (> 22803 (+ (+ ?x3182 (- 33 ?x2415)) 24003)) 1 (ite (<= 25203 (+ (+ ?x3182 (- 33 ?x2415)) 24003)) (- 1) 0))))
 (let ((?x3831 (select ?x202 33)))
 (let ((?x2722 (ite (>= ?x3789 (+ ?x3831 ?x4798)) 33 (ite (>= ?x3789 (+ ?x1455 ?x2895)) 32 ?x583))))
 (let ((?x4592 (ite (> 22803 (+ (+ ?x3182 (- 34 ?x2415)) 24003)) 1 (ite (<= 25203 (+ (+ ?x3182 (- 34 ?x2415)) 24003)) (- 1) 0))))
 (let ((?x2745 (select ?x202 34)))
 (let ((?x3848 (ite (> 22803 (+ (+ ?x3182 (- 35 ?x2415)) 24003)) 1 (ite (<= 25203 (+ (+ ?x3182 (- 35 ?x2415)) 24003)) (- 1) 0))))
 (let ((?x3508 (select ?x202 35)))
 (let ((?x2841 (ite (>= ?x3789 (+ ?x3508 ?x3848)) 35 (ite (>= ?x3789 (+ ?x2745 ?x4592)) 34 ?x2722))))
 (let ((?x3150 (ite (> 22803 (+ (+ ?x3182 (- 36 ?x2415)) 24003)) 1 (ite (<= 25203 (+ (+ ?x3182 (- 36 ?x2415)) 24003)) (- 1) 0))))
 (let ((?x2389 (select ?x202 36)))
 (let ((?x4737 (ite (> 22803 (+ (+ ?x3182 (- 37 ?x2415)) 24003)) 1 (ite (<= 25203 (+ (+ ?x3182 (- 37 ?x2415)) 24003)) (- 1) 0))))
 (let ((?x1999 (select ?x202 37)))
 (let ((?x1963 (ite (>= ?x3789 (+ ?x1999 ?x4737)) 37 (ite (>= ?x3789 (+ ?x2389 ?x3150)) 36 ?x2841))))
 (let ((?x2622 (ite (> 22803 (+ (+ ?x3182 (- 38 ?x2415)) 24003)) 1 (ite (<= 25203 (+ (+ ?x3182 (- 38 ?x2415)) 24003)) (- 1) 0))))
 (let ((?x928 (select ?x202 38)))
 (let ((?x4423 (ite (> 22803 (+ (+ ?x3182 (- 39 ?x2415)) 24003)) 1 (ite (<= 25203 (+ (+ ?x3182 (- 39 ?x2415)) 24003)) (- 1) 0))))
 (let ((?x2290 (select ?x202 39)))
 (let ((?x3231 (ite (>= ?x3789 (+ ?x2290 ?x4423)) 39 (ite (>= ?x3789 (+ ?x928 ?x2622)) 38 ?x1963))))
 (let ((?x2521 (ite (> 22803 (+ (+ ?x3182 (- 40 ?x2415)) 24003)) 1 (ite (<= 25203 (+ (+ ?x3182 (- 40 ?x2415)) 24003)) (- 1) 0))))
 (let ((?x3133 (select ?x202 40)))
 (let ((?x2611 (ite (> 22803 (+ (+ ?x3182 (- 41 ?x2415)) 24003)) 1 (ite (<= 25203 (+ (+ ?x3182 (- 41 ?x2415)) 24003)) (- 1) 0))))
 (let ((?x3662 (select ?x202 41)))
 (let ((?x4221 (ite (>= ?x3789 (+ ?x3662 ?x2611)) 41 (ite (>= ?x3789 (+ ?x3133 ?x2521)) 40 ?x3231))))
 (let ((?x2766 (ite (> 22803 (+ (+ ?x3182 (- 42 ?x2415)) 24003)) 1 (ite (<= 25203 (+ (+ ?x3182 (- 42 ?x2415)) 24003)) (- 1) 0))))
 (let ((?x3609 (select ?x202 42)))
 (let ((?x1256 (ite (> 22803 (+ (+ ?x3182 (- 43 ?x2415)) 24003)) 1 (ite (<= 25203 (+ (+ ?x3182 (- 43 ?x2415)) 24003)) (- 1) 0))))
 (let ((?x4150 (select ?x202 43)))
 (let ((?x3699 (ite (>= ?x3789 (+ ?x4150 ?x1256)) 43 (ite (>= ?x3789 (+ ?x3609 ?x2766)) 42 ?x4221))))
 (let ((?x2209 (ite (> 22803 (+ (+ ?x3182 (- 44 ?x2415)) 24003)) 1 (ite (<= 25203 (+ (+ ?x3182 (- 44 ?x2415)) 24003)) (- 1) 0))))
 (let ((?x1705 (select ?x202 44)))
 (let ((?x540 (ite (> 22803 (+ (+ ?x3182 (- 45 ?x2415)) 24003)) 1 (ite (<= 25203 (+ (+ ?x3182 (- 45 ?x2415)) 24003)) (- 1) 0))))
 (let ((?x3652 (select ?x202 45)))
 (let ((?x3328 (ite (>= ?x3789 (+ ?x3652 ?x540)) 45 (ite (>= ?x3789 (+ ?x1705 ?x2209)) 44 ?x3699))))
 (let ((?x2502 (ite (> 22803 (+ (+ ?x3182 (- 46 ?x2415)) 24003)) 1 (ite (<= 25203 (+ (+ ?x3182 (- 46 ?x2415)) 24003)) (- 1) 0))))
 (let ((?x2096 (select ?x202 46)))
 (let ((?x2457 (ite (> 22803 (+ (+ ?x3182 (- 47 ?x2415)) 24003)) 1 (ite (<= 25203 (+ (+ ?x3182 (- 47 ?x2415)) 24003)) (- 1) 0))))
 (let ((?x3063 (select ?x202 47)))
 (let ((?x426 (ite (>= ?x3789 (+ ?x3063 ?x2457)) 47 (ite (>= ?x3789 (+ ?x2096 ?x2502)) 46 ?x3328))))
 (let ((?x2352 (+ ?x3182 (- ?x426 ?x2415))))
 (let ((?x864 (+ ?x2352 24003)))
 (let ((?x4179 (+ (select ?x202 ?x426) (ite (> 22803 ?x864) 1 (ite (<= 25203 ?x864) (- 1) 0)))))
 (let ((?x2448 (- ?x3789 ?x4179)))
 (let ((?x3604 (ite (or (= 22802 ?x864) (= 25202 ?x864)) 28 (select ?x108 ?x426))))
 (let (($x3823 (= y_beta (ite (= 1 (ite (>= ?x2448 ?x3604) 1 0)) (- ?x2448 ?x3604) ?x2448))))
 (and (= y_months (+ ?x2352 (ite (>= ?x2448 ?x3604) 1 0))) $x3823)))))))))))))))))))))))))))))))))))))))))))))))))))))))))))))))))))))))))))))))))))))))))))))))))))))))))))))))))))))))))))))))))))))))))))))))))))))))))))))))))))))))))))))))))))))))))))))))))))))
(assert
 (let ((?x5405 (+ x_months 0)))
 (let ((?x5413 (mod ?x5405 48)))
 (let ((?x4160 (ite (> 22803 (+ ?x5405 24003)) 1 (ite (<= 25203 (+ ?x5405 24003)) (- 1) 0))))
 (let ((?x13 ((as const (Array Int Int)) 0)))
 (let ((?x15 (store ?x13 0 31)))
 (let ((?x18 (store ?x15 1 30)))
 (let ((?x20 (store ?x18 2 31)))
 (let ((?x22 (store ?x20 3 30)))
 (let ((?x24 (store ?x22 4 31)))
 (let ((?x26 (store ?x24 5 31)))
 (let ((?x28 (store ?x26 6 30)))
 (let ((?x30 (store ?x28 7 31)))
 (let ((?x32 (store ?x30 8 30)))
 (let ((?x34 (store ?x32 9 31)))
 (let ((?x36 (store ?x34 10 31)))
 (let ((?x39 (store ?x36 11 28)))
 (let ((?x41 (store ?x39 12 31)))
 (let ((?x43 (store ?x41 13 30)))
 (let ((?x45 (store ?x43 14 31)))
 (let ((?x47 (store ?x45 15 30)))
 (let ((?x49 (store ?x47 16 31)))
 (let ((?x51 (store ?x49 17 31)))
 (let ((?x53 (store ?x51 18 30)))
 (let ((?x55 (store ?x53 19 31)))
 (let ((?x57 (store ?x55 20 30)))
 (let ((?x59 (store ?x57 21 31)))
 (let ((?x61 (store ?x59 22 31)))
 (let ((?x63 (store ?x61 23 28)))
 (let ((?x65 (store ?x63 24 31)))
 (let ((?x67 (store ?x65 25 30)))
 (let ((?x69 (store ?x67 26 31)))
 (let ((?x71 (store ?x69 27 30)))
 (let ((?x72 (store ?x71 28 31)))
 (let ((?x74 (store ?x72 29 31)))
 (let ((?x75 (store ?x74 30 30)))
 (let ((?x76 (store ?x75 31 31)))
 (let ((?x78 (store ?x76 32 30)))
 (let ((?x80 (store ?x78 33 31)))
 (let ((?x82 (store ?x80 34 31)))
 (let ((?x84 (store ?x82 35 28)))
 (let ((?x86 (store ?x84 36 31)))
 (let ((?x88 (store ?x86 37 30)))
 (let ((?x90 (store ?x88 38 31)))
 (let ((?x92 (store ?x90 39 30)))
 (let ((?x94 (store ?x92 40 31)))
 (let ((?x96 (store ?x94 41 31)))
 (let ((?x98 (store ?x96 42 30)))
 (let ((?x100 (store ?x98 43 31)))
 (let ((?x102 (store ?x100 44 30)))
 (let ((?x104 (store ?x102 45 31)))
 (let ((?x106 (store ?x104 46 31)))
 (let ((?x108 (store ?x106 47 29)))
 (let ((?x4608 (ite (or (= 22802 (+ ?x5405 24003)) (= 25202 (+ ?x5405 24003))) 28 (select ?x108 ?x5413))))
 (let ((?x4348 (- ?x4608 1)))
 (let (($x3571 (> 0 x_beta)))
 (let ((?x114 (store (store (store (store ?x13 0 0) 1 31) 2 61) 3 92)))
 (let ((?x122 (store (store (store (store ?x114 4 122) 5 153) 6 184) 7 214)))
 (let ((?x130 (store (store (store (store ?x122 8 245) 9 275) 10 306) 11 337)))
 (let ((?x138 (store (store (store (store ?x130 12 365) 13 396) 14 426) 15 457)))
 (let ((?x146 (store (store (store (store ?x138 16 487) 17 518) 18 549) 19 579)))
 (let ((?x154 (store (store (store (store ?x146 20 610) 21 640) 22 671) 23 702)))
 (let ((?x162 (store (store (store (store ?x154 24 730) 25 761) 26 791) 27 822)))
 (let ((?x170 (store (store (store (store ?x162 28 852) 29 883) 30 914) 31 944)))
 (let ((?x178 (store (store (store (store ?x170 32 975) 33 1005) 34 1036) 35 1067)))
 (let ((?x186 (store (store (store (store ?x178 36 1095) 37 1126) 38 1156) 39 1187)))
 (let ((?x194 (store (store (store (store ?x186 40 1217) 41 1248) 42 1279) 43 1309)))
 (let ((?x202 (store (store (store (store ?x194 44 1340) 45 1370) 46 1401) 47 1432)))
 (let ((?x4476 (+ (select ?x202 ?x5413) (ite $x3571 0 (ite (> x_beta ?x4348) ?x4348 x_beta)))))
 (let ((?x2017 (+ (+ ?x4476 ?x4160) 30)))
 (let ((?x869 (+ ?x5405 (* (div ?x2017 1461) 48))))
 (let ((?x4380 (+ (+ ?x869 (- 1 ?x5413)) 24003)))
 (let ((?x4797 (select ?x202 1)))
 (let ((?x1728 (mod ?x2017 1461)))
 (let (($x5445 (>= ?x1728 (+ ?x4797 (ite (> 22803 ?x4380) 1 (ite (<= 25203 ?x4380) (- 1) 0))))))
 (let ((?x635 (ite (> 22803 (+ (+ ?x869 (- 2 ?x5413)) 24003)) 1 (ite (<= 25203 (+ (+ ?x869 (- 2 ?x5413)) 24003)) (- 1) 0))))
 (let ((?x3260 (select ?x202 2)))
 (let ((?x4864 (ite (> 22803 (+ (+ ?x869 (- 3 ?x5413)) 24003)) 1 (ite (<= 25203 (+ (+ ?x869 (- 3 ?x5413)) 24003)) (- 1) 0))))
 (let ((?x3576 (select ?x202 3)))
 (let ((?x3202 (ite (>= ?x1728 (+ ?x3576 ?x4864)) 3 (ite (>= ?x1728 (+ ?x3260 ?x635)) 2 (ite $x5445 1 0)))))
 (let ((?x4746 (ite (> 22803 (+ (+ ?x869 (- 4 ?x5413)) 24003)) 1 (ite (<= 25203 (+ (+ ?x869 (- 4 ?x5413)) 24003)) (- 1) 0))))
 (let ((?x3179 (select ?x202 4)))
 (let ((?x2629 (ite (> 22803 (+ (+ ?x869 (- 5 ?x5413)) 24003)) 1 (ite (<= 25203 (+ (+ ?x869 (- 5 ?x5413)) 24003)) (- 1) 0))))
 (let ((?x2770 (select ?x202 5)))
 (let ((?x4776 (ite (>= ?x1728 (+ ?x2770 ?x2629)) 5 (ite (>= ?x1728 (+ ?x3179 ?x4746)) 4 ?x3202))))
 (let ((?x3796 (ite (> 22803 (+ (+ ?x869 (- 6 ?x5413)) 24003)) 1 (ite (<= 25203 (+ (+ ?x869 (- 6 ?x5413)) 24003)) (- 1) 0))))
 (let ((?x2012 (select ?x202 6)))
 (let ((?x5095 (ite (> 22803 (+ (+ ?x869 (- 7 ?x5413)) 24003)) 1 (ite (<= 25203 (+ (+ ?x869 (- 7 ?x5413)) 24003)) (- 1) 0))))
 (let ((?x1753 (select ?x202 7)))
 (let ((?x342 (ite (>= ?x1728 (+ ?x1753 ?x5095)) 7 (ite (>= ?x1728 (+ ?x2012 ?x3796)) 6 ?x4776))))
 (let ((?x5545 (ite (> 22803 (+ (+ ?x869 (- 8 ?x5413)) 24003)) 1 (ite (<= 25203 (+ (+ ?x869 (- 8 ?x5413)) 24003)) (- 1) 0))))
 (let ((?x3019 (select ?x202 8)))
 (let ((?x5560 (ite (> 22803 (+ (+ ?x869 (- 9 ?x5413)) 24003)) 1 (ite (<= 25203 (+ (+ ?x869 (- 9 ?x5413)) 24003)) (- 1) 0))))
 (let ((?x276 (select ?x202 9)))
 (let ((?x2368 (ite (>= ?x1728 (+ ?x276 ?x5560)) 9 (ite (>= ?x1728 (+ ?x3019 ?x5545)) 8 ?x342))))
 (let ((?x4444 (ite (> 22803 (+ (+ ?x869 (- 10 ?x5413)) 24003)) 1 (ite (<= 25203 (+ (+ ?x869 (- 10 ?x5413)) 24003)) (- 1) 0))))
 (let ((?x1211 (select ?x202 10)))
 (let ((?x5383 (ite (> 22803 (+ (+ ?x869 (- 11 ?x5413)) 24003)) 1 (ite (<= 25203 (+ (+ ?x869 (- 11 ?x5413)) 24003)) (- 1) 0))))
 (let ((?x2002 (select ?x202 11)))
 (let ((?x1553 (ite (>= ?x1728 (+ ?x2002 ?x5383)) 11 (ite (>= ?x1728 (+ ?x1211 ?x4444)) 10 ?x2368))))
 (let ((?x389 (ite (> 22803 (+ (+ ?x869 (- 12 ?x5413)) 24003)) 1 (ite (<= 25203 (+ (+ ?x869 (- 12 ?x5413)) 24003)) (- 1) 0))))
 (let ((?x4124 (select ?x202 12)))
 (let ((?x3821 (ite (> 22803 (+ (+ ?x869 (- 13 ?x5413)) 24003)) 1 (ite (<= 25203 (+ (+ ?x869 (- 13 ?x5413)) 24003)) (- 1) 0))))
 (let ((?x1962 (select ?x202 13)))
 (let ((?x5511 (ite (>= ?x1728 (+ ?x1962 ?x3821)) 13 (ite (>= ?x1728 (+ ?x4124 ?x389)) 12 ?x1553))))
 (let ((?x1897 (ite (> 22803 (+ (+ ?x869 (- 14 ?x5413)) 24003)) 1 (ite (<= 25203 (+ (+ ?x869 (- 14 ?x5413)) 24003)) (- 1) 0))))
 (let ((?x1128 (select ?x202 14)))
 (let ((?x1995 (ite (> 22803 (+ (+ ?x869 (- 15 ?x5413)) 24003)) 1 (ite (<= 25203 (+ (+ ?x869 (- 15 ?x5413)) 24003)) (- 1) 0))))
 (let ((?x327 (select ?x202 15)))
 (let ((?x4640 (ite (>= ?x1728 (+ ?x327 ?x1995)) 15 (ite (>= ?x1728 (+ ?x1128 ?x1897)) 14 ?x5511))))
 (let ((?x2514 (ite (> 22803 (+ (+ ?x869 (- 16 ?x5413)) 24003)) 1 (ite (<= 25203 (+ (+ ?x869 (- 16 ?x5413)) 24003)) (- 1) 0))))
 (let ((?x2819 (select ?x202 16)))
 (let ((?x449 (ite (> 22803 (+ (+ ?x869 (- 17 ?x5413)) 24003)) 1 (ite (<= 25203 (+ (+ ?x869 (- 17 ?x5413)) 24003)) (- 1) 0))))
 (let ((?x2982 (select ?x202 17)))
 (let ((?x2725 (ite (>= ?x1728 (+ ?x2982 ?x449)) 17 (ite (>= ?x1728 (+ ?x2819 ?x2514)) 16 ?x4640))))
 (let ((?x2925 (ite (> 22803 (+ (+ ?x869 (- 18 ?x5413)) 24003)) 1 (ite (<= 25203 (+ (+ ?x869 (- 18 ?x5413)) 24003)) (- 1) 0))))
 (let ((?x3585 (select ?x202 18)))
 (let ((?x3523 (ite (> 22803 (+ (+ ?x869 (- 19 ?x5413)) 24003)) 1 (ite (<= 25203 (+ (+ ?x869 (- 19 ?x5413)) 24003)) (- 1) 0))))
 (let ((?x4836 (select ?x202 19)))
 (let ((?x628 (ite (>= ?x1728 (+ ?x4836 ?x3523)) 19 (ite (>= ?x1728 (+ ?x3585 ?x2925)) 18 ?x2725))))
 (let ((?x2584 (ite (> 22803 (+ (+ ?x869 (- 20 ?x5413)) 24003)) 1 (ite (<= 25203 (+ (+ ?x869 (- 20 ?x5413)) 24003)) (- 1) 0))))
 (let ((?x4726 (select ?x202 20)))
 (let ((?x2118 (ite (> 22803 (+ (+ ?x869 (- 21 ?x5413)) 24003)) 1 (ite (<= 25203 (+ (+ ?x869 (- 21 ?x5413)) 24003)) (- 1) 0))))
 (let ((?x4610 (select ?x202 21)))
 (let ((?x4748 (ite (>= ?x1728 (+ ?x4610 ?x2118)) 21 (ite (>= ?x1728 (+ ?x4726 ?x2584)) 20 ?x628))))
 (let ((?x3963 (ite (> 22803 (+ (+ ?x869 (- 22 ?x5413)) 24003)) 1 (ite (<= 25203 (+ (+ ?x869 (- 22 ?x5413)) 24003)) (- 1) 0))))
 (let ((?x2580 (select ?x202 22)))
 (let ((?x880 (ite (> 22803 (+ (+ ?x869 (- 23 ?x5413)) 24003)) 1 (ite (<= 25203 (+ (+ ?x869 (- 23 ?x5413)) 24003)) (- 1) 0))))
 (let ((?x3115 (select ?x202 23)))
 (let ((?x3614 (ite (>= ?x1728 (+ ?x3115 ?x880)) 23 (ite (>= ?x1728 (+ ?x2580 ?x3963)) 22 ?x4748))))
 (let ((?x3936 (ite (> 22803 (+ (+ ?x869 (- 24 ?x5413)) 24003)) 1 (ite (<= 25203 (+ (+ ?x869 (- 24 ?x5413)) 24003)) (- 1) 0))))
 (let ((?x419 (select ?x202 24)))
 (let ((?x5207 (ite (> 22803 (+ (+ ?x869 (- 25 ?x5413)) 24003)) 1 (ite (<= 25203 (+ (+ ?x869 (- 25 ?x5413)) 24003)) (- 1) 0))))
 (let ((?x4211 (select ?x202 25)))
 (let ((?x3501 (ite (>= ?x1728 (+ ?x4211 ?x5207)) 25 (ite (>= ?x1728 (+ ?x419 ?x3936)) 24 ?x3614))))
 (let ((?x1112 (ite (> 22803 (+ (+ ?x869 (- 26 ?x5413)) 24003)) 1 (ite (<= 25203 (+ (+ ?x869 (- 26 ?x5413)) 24003)) (- 1) 0))))
 (let ((?x4589 (select ?x202 26)))
 (let ((?x384 (ite (> 22803 (+ (+ ?x869 (- 27 ?x5413)) 24003)) 1 (ite (<= 25203 (+ (+ ?x869 (- 27 ?x5413)) 24003)) (- 1) 0))))
 (let ((?x3121 (select ?x202 27)))
 (let ((?x5042 (ite (>= ?x1728 (+ ?x3121 ?x384)) 27 (ite (>= ?x1728 (+ ?x4589 ?x1112)) 26 ?x3501))))
 (let ((?x2010 (ite (> 22803 (+ (+ ?x869 (- 28 ?x5413)) 24003)) 1 (ite (<= 25203 (+ (+ ?x869 (- 28 ?x5413)) 24003)) (- 1) 0))))
 (let ((?x3367 (select ?x202 28)))
 (let ((?x1872 (ite (> 22803 (+ (+ ?x869 (- 29 ?x5413)) 24003)) 1 (ite (<= 25203 (+ (+ ?x869 (- 29 ?x5413)) 24003)) (- 1) 0))))
 (let ((?x3356 (select ?x202 29)))
 (let ((?x2776 (ite (>= ?x1728 (+ ?x3356 ?x1872)) 29 (ite (>= ?x1728 (+ ?x3367 ?x2010)) 28 ?x5042))))
 (let ((?x2077 (ite (> 22803 (+ (+ ?x869 (- 30 ?x5413)) 24003)) 1 (ite (<= 25203 (+ (+ ?x869 (- 30 ?x5413)) 24003)) (- 1) 0))))
 (let ((?x383 (select ?x202 30)))
 (let ((?x2728 (ite (> 22803 (+ (+ ?x869 (- 31 ?x5413)) 24003)) 1 (ite (<= 25203 (+ (+ ?x869 (- 31 ?x5413)) 24003)) (- 1) 0))))
 (let ((?x2378 (select ?x202 31)))
 (let ((?x5396 (ite (>= ?x1728 (+ ?x2378 ?x2728)) 31 (ite (>= ?x1728 (+ ?x383 ?x2077)) 30 ?x2776))))
 (let ((?x5435 (ite (> 22803 (+ (+ ?x869 (- 32 ?x5413)) 24003)) 1 (ite (<= 25203 (+ (+ ?x869 (- 32 ?x5413)) 24003)) (- 1) 0))))
 (let ((?x1455 (select ?x202 32)))
 (let ((?x5492 (ite (> 22803 (+ (+ ?x869 (- 33 ?x5413)) 24003)) 1 (ite (<= 25203 (+ (+ ?x869 (- 33 ?x5413)) 24003)) (- 1) 0))))
 (let ((?x3831 (select ?x202 33)))
 (let ((?x5496 (ite (>= ?x1728 (+ ?x3831 ?x5492)) 33 (ite (>= ?x1728 (+ ?x1455 ?x5435)) 32 ?x5396))))
 (let ((?x5523 (ite (> 22803 (+ (+ ?x869 (- 34 ?x5413)) 24003)) 1 (ite (<= 25203 (+ (+ ?x869 (- 34 ?x5413)) 24003)) (- 1) 0))))
 (let ((?x2745 (select ?x202 34)))
 (let ((?x5587 (ite (> 22803 (+ (+ ?x869 (- 35 ?x5413)) 24003)) 1 (ite (<= 25203 (+ (+ ?x869 (- 35 ?x5413)) 24003)) (- 1) 0))))
 (let ((?x3508 (select ?x202 35)))
 (let ((?x5602 (ite (>= ?x1728 (+ ?x3508 ?x5587)) 35 (ite (>= ?x1728 (+ ?x2745 ?x5523)) 34 ?x5496))))
 (let ((?x1000 (ite (> 22803 (+ (+ ?x869 (- 36 ?x5413)) 24003)) 1 (ite (<= 25203 (+ (+ ?x869 (- 36 ?x5413)) 24003)) (- 1) 0))))
 (let ((?x2389 (select ?x202 36)))
 (let ((?x1184 (ite (> 22803 (+ (+ ?x869 (- 37 ?x5413)) 24003)) 1 (ite (<= 25203 (+ (+ ?x869 (- 37 ?x5413)) 24003)) (- 1) 0))))
 (let ((?x1999 (select ?x202 37)))
 (let ((?x3522 (ite (>= ?x1728 (+ ?x1999 ?x1184)) 37 (ite (>= ?x1728 (+ ?x2389 ?x1000)) 36 ?x5602))))
 (let ((?x4433 (ite (> 22803 (+ (+ ?x869 (- 38 ?x5413)) 24003)) 1 (ite (<= 25203 (+ (+ ?x869 (- 38 ?x5413)) 24003)) (- 1) 0))))
 (let ((?x928 (select ?x202 38)))
 (let ((?x3822 (ite (> 22803 (+ (+ ?x869 (- 39 ?x5413)) 24003)) 1 (ite (<= 25203 (+ (+ ?x869 (- 39 ?x5413)) 24003)) (- 1) 0))))
 (let ((?x2290 (select ?x202 39)))
 (let ((?x4076 (ite (>= ?x1728 (+ ?x2290 ?x3822)) 39 (ite (>= ?x1728 (+ ?x928 ?x4433)) 38 ?x3522))))
 (let ((?x3418 (ite (> 22803 (+ (+ ?x869 (- 40 ?x5413)) 24003)) 1 (ite (<= 25203 (+ (+ ?x869 (- 40 ?x5413)) 24003)) (- 1) 0))))
 (let ((?x3133 (select ?x202 40)))
 (let ((?x3507 (ite (> 22803 (+ (+ ?x869 (- 41 ?x5413)) 24003)) 1 (ite (<= 25203 (+ (+ ?x869 (- 41 ?x5413)) 24003)) (- 1) 0))))
 (let ((?x3662 (select ?x202 41)))
 (let ((?x3485 (ite (>= ?x1728 (+ ?x3662 ?x3507)) 41 (ite (>= ?x1728 (+ ?x3133 ?x3418)) 40 ?x4076))))
 (let ((?x319 (ite (> 22803 (+ (+ ?x869 (- 42 ?x5413)) 24003)) 1 (ite (<= 25203 (+ (+ ?x869 (- 42 ?x5413)) 24003)) (- 1) 0))))
 (let ((?x3609 (select ?x202 42)))
 (let ((?x5553 (ite (> 22803 (+ (+ ?x869 (- 43 ?x5413)) 24003)) 1 (ite (<= 25203 (+ (+ ?x869 (- 43 ?x5413)) 24003)) (- 1) 0))))
 (let ((?x4150 (select ?x202 43)))
 (let ((?x4190 (ite (>= ?x1728 (+ ?x4150 ?x5553)) 43 (ite (>= ?x1728 (+ ?x3609 ?x319)) 42 ?x3485))))
 (let ((?x2003 (ite (> 22803 (+ (+ ?x869 (- 44 ?x5413)) 24003)) 1 (ite (<= 25203 (+ (+ ?x869 (- 44 ?x5413)) 24003)) (- 1) 0))))
 (let ((?x1705 (select ?x202 44)))
 (let ((?x1297 (ite (> 22803 (+ (+ ?x869 (- 45 ?x5413)) 24003)) 1 (ite (<= 25203 (+ (+ ?x869 (- 45 ?x5413)) 24003)) (- 1) 0))))
 (let ((?x3652 (select ?x202 45)))
 (let ((?x2011 (ite (>= ?x1728 (+ ?x3652 ?x1297)) 45 (ite (>= ?x1728 (+ ?x1705 ?x2003)) 44 ?x4190))))
 (let ((?x4530 (ite (> 22803 (+ (+ ?x869 (- 46 ?x5413)) 24003)) 1 (ite (<= 25203 (+ (+ ?x869 (- 46 ?x5413)) 24003)) (- 1) 0))))
 (let ((?x2096 (select ?x202 46)))
 (let ((?x4061 (ite (> 22803 (+ (+ ?x869 (- 47 ?x5413)) 24003)) 1 (ite (<= 25203 (+ (+ ?x869 (- 47 ?x5413)) 24003)) (- 1) 0))))
 (let ((?x3063 (select ?x202 47)))
 (let ((?x2113 (ite (>= ?x1728 (+ ?x3063 ?x4061)) 47 (ite (>= ?x1728 (+ ?x2096 ?x4530)) 46 ?x2011))))
 (let ((?x3895 (+ ?x869 (- ?x2113 ?x5413))))
 (let ((?x4199 (+ ?x3895 24003)))
 (let ((?x4142 (+ (select ?x202 ?x2113) (ite (> 22803 ?x4199) 1 (ite (<= 25203 ?x4199) (- 1) 0)))))
 (let ((?x3964 (- ?x1728 ?x4142)))
 (let ((?x1829 (ite (or (= 22802 ?x4199) (= 25202 ?x4199)) 28 (select ?x108 ?x2113))))
 (let (($x2678 (= z_beta (ite (= 1 (ite (>= ?x3964 ?x1829) 1 0)) (- ?x3964 ?x1829) ?x3964))))
 (and (= z_months (+ ?x3895 (ite (>= ?x3964 ?x1829) 1 0))) $x2678)))))))))))))))))))))))))))))))))))))))))))))))))))))))))))))))))))))))))))))))))))))))))))))))))))))))))))))))))))))))))))))))))))))))))))))))))))))))))))))))))))))))))))))))))))))))))))))))))))))
(assert
 (not (and (= y_months z_months) (= y_beta z_beta))))
(assert
 (and (= x_months (- (+ (* 2023 12) 1) 24003)) (= 30 x_beta)))
(assert
 (and (= y_months (- (+ (* 2023 12) 2) 24003)) (= 27 y_beta)))
(assert
 (and (= z_months (- (+ (* 2023 12) 3) 24003)) (= 1 z_beta)))
(check-sat)
